============================[ Problem Statistics ]=============================|                                                                             ||  Number of variables:          4242                                         ||  Number of clauses:            9940                                         ||  Parse time:                   0.34 s                                       ||                                                                             |============================[ Search Statistics ]==============================| Conflicts |          ORIGINAL         |          LEARNT          | Progress ||           |    Vars  Clauses Literals |    Limit  Clauses Lit/Cl |          |===============================================================================|       100 |    1591     6145   524096 |     2253      100     53 | 62.501 % |===============================================================================restarts              : 2conflicts             : 194            (378 /sec)decisions             : 364            (0.00 % random) (710 /sec)propagations          : 10052          (19595 /sec)conflict literals     : 13556          (95.18 % deleted)CPU time              : 0.513 sSATISFIABLE